51  51  51  51  -1  
37  37  37  37  -1  
44  44  44  44  -1  
70  70  70  70  -1  
47  47  47  47  -1  
66  66  66  66  -1  
82  82  82  82  -1  
49  49  49  49  -1  
46  46  46  46  -1  
74  74  74  74  -1  
48  48  48  48  -1  
42  42  42  42  -1  
54  54  54  54  -1  
40  40  40  40  -1  
44  44  44  44  -1  
